(declare-const a Int)
(declare-const b Int)
(declare-const c Int)
(declare-const d Int)
(declare-const e Int)
(declare-const f Int)
(declare-const g Int)
(declare-const h Int)
(declare-const i Int)
(assert (and (> d 0) (>= (* g g c (- 1)) 0) (= 0 (+ (* f e) (* h g))) (= b (+ h (- e) (* c i) (* f e (- b 1)))) (or (= 0 (div a (* b b))) (distinct 0 (+ h (* d d c) (* d c (- d) (- i) (+ i g)))))))
(assert (>= c 0))
(assert (>= e 0))
(check-sat)
